\ Model Routes
\ LP format - for model browsing. Use MPS format to capture full model detail.
Maximize
  - 191.7153353028244 R{0,0} + 623.2046552982704 R{0,1}
   + 623.2046552982704 R{0,2} - 249.2301939667805 R{0,3}
   - 17.2186063228686 R{0,4} + 1085.481438609255 R{0,5}
   + 1085.481438609255 R{0,6} + 967.651658928284 R{0,7}
   + 475.7166800497463 R{0,8} + 852.3918860260821 R{0,9}
   + 475.7166800497463 R{0,10} + 813.3372353604298 R{0,11}
   + 1034.191974256068 R{0,12} + 500.2093291414617 R{0,13}
   + 996.935952498081 R{0,14} + 1564.76617959716 R{0,15}
   + 678.4804018423022 R{0,16} + 426.0462613747952 R{0,17}
   + 1393.666870705927 R{0,18} + 1384.407562096757 R{0,19}
   + 350.9531532184783 R{0,20} + 280.6013343149186 R{0,21}
   + 1530.21992219022 R{0,22} + 791.0565111774542 R{0,23}
   + 123.6023292161972 R{0,24} + 653.3199156215929 R{0,25}
   + 1161.254721730031 R{0,26} + 506.8821157284364 R{0,27}
   + 906.4819231786028 R{0,28} + 188.1021492976921 R{0,29}
   + 563.0024402500594 R{0,30} + 27.04707834682517 R{0,31}
   + 280.6013343149186 R{0,32} - 297.943051454288 R{0,33}
   - 256.140831891889 R{1,0} + 447.7621346221227 R{1,1}
   + 1075.249811287294 R{1,2} + 1102.369956540316 R{1,3}
   + 1198.185590006716 R{1,4} + 1199.635439802436 R{1,5}
   + 632.1932046439003 R{1,6} + 1421.938233207847 R{1,7}
   + 1626.071713321974 R{1,8} + 748.3311292626968 R{1,9}
   + 1382.078435054728 R{1,10} + 534.5161723474407 R{1,11}
   + 1299.875355251686 R{1,12} - 72.63034421953006 R{1,13}
   + 810.558358337028 R{1,14} + 832.4460845163753 R{1,15}
   + 743.2272376976674 R{1,16} + 1096.409822083841 R{1,17}
   + 653.2188619780368 R{1,18} + 704.5171593559166 R{1,19}
   + 396.8938302859597 R{1,20} + 1097.405857868174 R{1,21}
   + 1242.102666778976 R{1,22} + 579.2266619150754 R{1,23}
   + 954.6390266470623 R{1,24} + 382.354086353134 R{1,25}
   + 685.5002516310947 R{1,26} + 1415.126770624762 R{1,27}
   + 1009.644641505451 R{1,28} + 1209.757015313399 R{1,29}
   + 920.2572162948825 R{1,30} + 903.2743575790137 R{1,31}
   + 965.5622477082238 R{1,32} + 392.180743883333 R{1,33}
   + 1198.881248318718 R{2,0} + 1198.881248318718 R{2,1}
   - 278.4443928850388 R{2,2} - 59.13410337035452 R{2,3}
   + 602.7748664658451 R{2,4} + 1100.505917706273 R{2,5}
   + 465.2175846111744 R{2,6} + 1096.677670988279 R{2,7}
   + 1172.147868368183 R{2,8} + 1043.298735580204 R{2,9}
   + 1588.893751361177 R{2,10} + 704.7269455831054 R{2,11}
   + 407.63208831358 R{2,12} + 947.5724883564153 R{2,13}
   + 140.9169682114691 R{2,14} + 587.4264916803734 R{2,15}
   + 691.6053846678155 R{2,16} + 367.3268243107262 R{2,17}
   + 981.2425402451101 R{2,18} + 216.4532265509743 R{2,19}
   + 140.9169682114691 R{2,20} + 606.8679807485196 R{2,21}
   + 273.3420836323035 R{2,22} + 1231.41121693843 R{2,23}
   + 662.7539123622682 R{2,24} + 254.2765511022717 R{2,25}
   + 434.3865264862286 R{2,26} + 565.8750184058549 R{2,27}
   + 210.0920415003751 R{2,28} + 701.3015580910572 R{2,29}
   + 329.7444866917529 R{2,30} + 234.3845341649414 R{2,31}
   + 273.3420836323035 R{2,32} - 260.2482995389823 R{3,0}
   + 289.9316145890127 R{3,1} + 997.977727065218 R{3,2}
   + 321.9892225262325 R{3,3} + 321.9892225262325 R{3,4}
   + 321.9892225262325 R{3,5} + 789.6525432437797 R{3,6}
   + 643.6066394260856 R{3,7} + 1255.82647748713 R{3,8}
   + 854.9890691917901 R{3,9} + 79.72530359943488 R{3,10}
   + 1793.588314683611 R{3,11} + 978.5515227749097 R{3,12}
   + 426.569235031071 R{3,13} + 919.040287141197 R{3,14}
   + 854.9890691917901 R{3,15} + 1768.975339352914 R{3,16}
   + 867.2493795930418 R{3,17} + 1134.316468496399 R{3,18}
   + 1328.93814987571 R{3,19} + 1794.002307447315 R{3,20}
   + 435.734644066993 R{3,21} + 700.6189490804343 R{3,22}
   + 838.1324424977649 R{3,23} + 1234.224659544193 R{3,24}
   + 1790.844912431599 R{3,25} + 454.4707522689068 R{3,26}
   + 1256.605165333898 R{3,27} + 571.8939689261895 R{3,28}
   + 1059.827043006097 R{3,29} + 682.6060885449708 R{3,30}
   + 781.5025832372064 R{3,31} + 989.7945658730696 R{3,32}
   + 908.2619746220691 R{3,33} + 1333.53147741993 R{3,34}
   + 689.5500077745944 R{3,35} + 1984.661416953757 R{3,36}
   + 688.7367113758776 R{3,37} + 1517.104298704145 R{3,38}
   + 1578.101964854761 R{3,39} + 827.7040082220974 R{3,40}
   + 535.4796643683846 R{3,41} + 947.3323558350482 R{3,42}
   + 383.3936489035229 R{3,43} + 1572.891037122782 R{3,44}
   - 242.5208875955131 R{4,0} + 835.4994431846833 R{4,1}
   + 1345.316574514046 R{4,2} + 1780.430822222607 R{4,3}
   + 989.3785491132439 R{4,4} + 1383.879663885629 R{4,5}
   + 800.383138611205 R{4,6} + 1369.49873589961 R{4,7}
   + 1530.997835618634 R{4,8} + 1003.759477099264 R{4,9}
   + 1134.446677281656 R{4,10} + 3127.56563419118 R{4,11}
   + 792.429381482999 R{4,12} + 1757.430793177176 R{4,13}
   + 879.7618460375252 R{4,14} + 1137.56612443406 R{4,15}
   + 723.9586041387831 R{4,16} + 1134.446677281656 R{4,17}
   + 676.9099810867677 R{4,18} + 1019.51028772868 R{4,19}
   + 1002.665776802193 R{4,20} + 1365.730398512104 R{4,21}
   + 833.5216077461957 R{4,22} + 861.0990043736888 R{4,23}
   + 651.2528671837365 R{4,24} + 2695.929867236277 R{4,25}
   + 1852.673935505629 R{4,26} + 1920.838502031636 R{4,27}
   + 1096.404937205352 R{4,28} + 1986.8262456307 R{4,29}
   + 1698.495821755885 R{4,30} + 585.1992656608292 R{4,31}
   + 1837.900443262047 R{4,32} + 1937.331978366092 R{4,33}
   + 1228.283338958141 R{4,34} + 1886.073405963769 R{4,35}
   + 1033.312974534233 R{4,36} + 725.8566597018922 R{4,37}
   + 1396.92403419125 R{4,38} + 1570.271577053211 R{4,39}
   + 815.843236537075 R{4,40} + 2099.770729235561 R{4,41}
   + 984.9293978512408 R{4,42} + 1133.397013583926 R{4,43}
   + 1635.479672039873 R{4,44} + 1784.961905427667 R{4,45}
   + 1632.36022488747 R{4,46} + 437.5288161623491 R{4,47}
   + 1415.40423892488 R{4,48} + 1733.123434348311 R{4,49}
   + 1064.9976676581 R{4,50} + 833.9075405678332 R{4,51}
   + 1113.846742449485 R{4,52} + 1203.40602136682 R{4,53}
   + 1252.740838543895 R{4,54} + 735.956172156488 R{4,55}
   + 815.843236537075 R{4,56} - 231.9775664337766 R{5,0}
   - 132.7945474830869 R{5,1} + 451.6696739061915 R{5,2}
   + 400.8537665596492 R{5,3} + 883.7458916735432 R{5,4}
   + 400.8537665596492 R{5,5} + 950.3354447813551 R{5,6}
   + 1125.164423064511 R{5,7} + 424.7882810228476 R{5,8}
   + 726.77033799638 R{5,9} + 424.7882810228476 R{5,10}
   + 303.8583748110391 R{5,11} - 71.74184779207837 R{5,12}
   + 615.7577030717338 R{5,13} + 1442.941467569959 R{5,14}
   + 615.7577030717338 R{5,15} + 378.5193234697628 R{5,16}
   + 2488.325766135319 R{5,17} + 1189.91906078288 R{5,18}
   + 424.7882810228476 R{5,19} + 1188.367592179457 R{5,20}
   - 26.04033113585953 R{5,21} + 2404.242894562008 R{5,22}
   - 303.3861929528331 R{5,23} + 2302.061971475569 R{5,24}
   + 2601.664805860566 R{5,25} - 231.1436095783099 R{6,0}
   + 875.4204493938873 R{6,1} + 1609.497712617132 R{6,2}
   + 2030.65274349011 R{6,3} + 2501.869124645021 R{6,4}
   + 1805.297422244169 R{6,5} + 2003.027917721917 R{6,6}
   + 1462.913336056535 R{6,7} + 1856.733946429862 R{6,8}
   + 1682.649433206118 R{6,9} + 303.4589849609603 R{6,10}
   + 1078.961208850624 R{6,11} + 2473.958537272389 R{6,12}
   + 1778.633737920231 R{6,13} + 1605.587528794162 R{6,14}
   + 645.8599966905161 R{6,15} + 2226.725110260527 R{6,16}
   + 1745.200315912624 R{6,17} + 1647.288425830771 R{6,18}
   + 1028.832125995486 R{6,19} + 1821.983528508128 R{6,20}
   + 1521.144478195217 R{6,21} + 1072.002161331442 R{6,22}
   + 1951.243486619804 R{6,23} + 1925.396521441726 R{6,24}
   + 1653.188674617425 R{6,25} + 1602.329149103845 R{6,26}
   + 1807.350913568532 R{6,27} + 1275.643621751115 R{6,28}
   + 1045.224131701217 R{6,29} + 1036.859812964536 R{6,30}
   + 695.1734385069192 R{6,31} + 850.6223646734261 R{6,32}
   + 1765.444271620102 R{6,33} + 2119.162240651388 R{6,34}
   + 1129.752735917628 R{6,35} + 706.7276431924614 R{6,36}
   + 1052.912556620264 R{6,37} + 485.8787338351189 R{6,38}
   + 822.3143565561363 R{6,39} + 1149.771702624144 R{6,40}
   + 1758.398415325787 R{6,41} + 1581.068707260271 R{6,42}
   + 1184.811948561464 R{6,43} + 1880.715485311167 R{6,44}
   + 1135.582337233033 R{6,45} + 1108.832884663107 R{6,46}
   + 1661.993635787566 R{6,47} + 2026.058852276152 R{6,48}
   + 1137.874063290496 R{6,49} + 1411.409389821624 R{6,50}
   + 1337.06531690149 R{6,51} + 1641.084878946823 R{6,52}
   + 1213.004191362769 R{6,53} + 1723.854246704692 R{6,54}
   + 948.9807001756596 R{6,55} + 166.627678835717 R{6,56}
   + 263.3975779389698 R{6,57} + 1723.854246704692 R{6,58}
Subject To
 R00: R{0,0} <= 1
 R01: R{0,1} <= 1
 R02: R{0,2} <= 1
 R03: R{0,3} <= 1
 R04: R{0,4} <= 1
 R05: R{0,5} <= 1
 R06: R{0,6} <= 1
 R07: R{0,7} <= 1
 R08: R{0,8} <= 1
 R09: R{0,9} <= 1
 R010: R{0,10} <= 1
 R011: R{0,11} <= 1
 R012: R{0,12} <= 1
 R013: R{0,13} <= 1
 R014: R{0,14} <= 1
 R015: R{0,15} <= 1
 R016: R{0,16} <= 1
 R017: R{0,17} <= 1
 R018: R{0,18} <= 1
 R019: R{0,19} <= 1
 R020: R{0,20} <= 1
 R021: R{0,21} <= 1
 R022: R{0,22} <= 1
 R023: R{0,23} <= 1
 R024: R{0,24} <= 1
 R025: R{0,25} <= 1
 R026: R{0,26} <= 1
 R027: R{0,27} <= 1
 R028: R{0,28} <= 1
 R029: R{0,29} <= 1
 R030: R{0,30} <= 1
 R031: R{0,31} <= 1
 R032: R{0,32} <= 1
 R033: R{0,33} <= 1
 R034: R{1,0} <= 1
 R035: R{1,1} <= 1
 R036: R{1,2} <= 1
 R037: R{1,3} <= 1
 R038: R{1,4} <= 1
 R039: R{1,5} <= 1
 R040: R{1,6} <= 1
 R041: R{1,7} <= 1
 R042: R{1,8} <= 1
 R043: R{1,9} <= 1
 R044: R{1,10} <= 1
 R045: R{1,11} <= 1
 R046: R{1,12} <= 1
 R047: R{1,13} <= 1
 R048: R{1,14} <= 1
 R049: R{1,15} <= 1
 R050: R{1,16} <= 1
 R051: R{1,17} <= 1
 R052: R{1,18} <= 1
 R053: R{1,19} <= 1
 R054: R{1,20} <= 1
 R055: R{1,21} <= 1
 R056: R{1,22} <= 1
 R057: R{1,23} <= 1
 R058: R{1,24} <= 1
 R059: R{1,25} <= 1
 R060: R{1,26} <= 1
 R061: R{1,27} <= 1
 R062: R{1,28} <= 1
 R063: R{1,29} <= 1
 R064: R{1,30} <= 1
 R065: R{1,31} <= 1
 R066: R{1,32} <= 1
 R067: R{1,33} <= 1
 R068: R{2,0} <= 1
 R069: R{2,1} <= 1
 R070: R{2,2} <= 1
 R071: R{2,3} <= 1
 R072: R{2,4} <= 1
 R073: R{2,5} <= 1
 R074: R{2,6} <= 1
 R075: R{2,7} <= 1
 R076: R{2,8} <= 1
 R077: R{2,9} <= 1
 R078: R{2,10} <= 1
 R079: R{2,11} <= 1
 R080: R{2,12} <= 1
 R081: R{2,13} <= 1
 R082: R{2,14} <= 1
 R083: R{2,15} <= 1
 R084: R{2,16} <= 1
 R085: R{2,17} <= 1
 R086: R{2,18} <= 1
 R087: R{2,19} <= 1
 R088: R{2,20} <= 1
 R089: R{2,21} <= 1
 R090: R{2,22} <= 1
 R091: R{2,23} <= 1
 R092: R{2,24} <= 1
 R093: R{2,25} <= 1
 R094: R{2,26} <= 1
 R095: R{2,27} <= 1
 R096: R{2,28} <= 1
 R097: R{2,29} <= 1
 R098: R{2,30} <= 1
 R099: R{2,31} <= 1
 R0100: R{2,32} <= 1
 R0101: R{3,0} <= 1
 R0102: R{3,1} <= 1
 R0103: R{3,2} <= 1
 R0104: R{3,3} <= 1
 R0105: R{3,4} <= 1
 R0106: R{3,5} <= 1
 R0107: R{3,6} <= 1
 R0108: R{3,7} <= 1
 R0109: R{3,8} <= 1
 R0110: R{3,9} <= 1
 R0111: R{3,10} <= 1
 R0112: R{3,11} <= 1
 R0113: R{3,12} <= 1
 R0114: R{3,13} <= 1
 R0115: R{3,14} <= 1
 R0116: R{3,15} <= 1
 R0117: R{3,16} <= 1
 R0118: R{3,17} <= 1
 R0119: R{3,18} <= 1
 R0120: R{3,19} <= 1
 R0121: R{3,20} <= 1
 R0122: R{3,21} <= 1
 R0123: R{3,22} <= 1
 R0124: R{3,23} <= 1
 R0125: R{3,24} <= 1
 R0126: R{3,25} <= 1
 R0127: R{3,26} <= 1
 R0128: R{3,27} <= 1
 R0129: R{3,28} <= 1
 R0130: R{3,29} <= 1
 R0131: R{3,30} <= 1
 R0132: R{3,31} <= 1
 R0133: R{3,32} <= 1
 R0134: R{3,33} <= 1
 R0135: R{3,34} <= 1
 R0136: R{3,35} <= 1
 R0137: R{3,36} <= 1
 R0138: R{3,37} <= 1
 R0139: R{3,38} <= 1
 R0140: R{3,39} <= 1
 R0141: R{3,40} <= 1
 R0142: R{3,41} <= 1
 R0143: R{3,42} <= 1
 R0144: R{3,43} <= 1
 R0145: R{3,44} <= 1
 R0146: R{4,0} <= 1
 R0147: R{4,1} <= 1
 R0148: R{4,2} <= 1
 R0149: R{4,3} <= 1
 R0150: R{4,4} <= 1
 R0151: R{4,5} <= 1
 R0152: R{4,6} <= 1
 R0153: R{4,7} <= 1
 R0154: R{4,8} <= 1
 R0155: R{4,9} <= 1
 R0156: R{4,10} <= 1
 R0157: R{4,11} <= 1
 R0158: R{4,12} <= 1
 R0159: R{4,13} <= 1
 R0160: R{4,14} <= 1
 R0161: R{4,15} <= 1
 R0162: R{4,16} <= 1
 R0163: R{4,17} <= 1
 R0164: R{4,18} <= 1
 R0165: R{4,19} <= 1
 R0166: R{4,20} <= 1
 R0167: R{4,21} <= 1
 R0168: R{4,22} <= 1
 R0169: R{4,23} <= 1
 R0170: R{4,24} <= 1
 R0171: R{4,25} <= 1
 R0172: R{4,26} <= 1
 R0173: R{4,27} <= 1
 R0174: R{4,28} <= 1
 R0175: R{4,29} <= 1
 R0176: R{4,30} <= 1
 R0177: R{4,31} <= 1
 R0178: R{4,32} <= 1
 R0179: R{4,33} <= 1
 R0180: R{4,34} <= 1
 R0181: R{4,35} <= 1
 R0182: R{4,36} <= 1
 R0183: R{4,37} <= 1
 R0184: R{4,38} <= 1
 R0185: R{4,39} <= 1
 R0186: R{4,40} <= 1
 R0187: R{4,41} <= 1
 R0188: R{4,42} <= 1
 R0189: R{4,43} <= 1
 R0190: R{4,44} <= 1
 R0191: R{4,45} <= 1
 R0192: R{4,46} <= 1
 R0193: R{4,47} <= 1
 R0194: R{4,48} <= 1
 R0195: R{4,49} <= 1
 R0196: R{4,50} <= 1
 R0197: R{4,51} <= 1
 R0198: R{4,52} <= 1
 R0199: R{4,53} <= 1
 R0200: R{4,54} <= 1
 R0201: R{4,55} <= 1
 R0202: R{4,56} <= 1
 R0203: R{5,0} <= 1
 R0204: R{5,1} <= 1
 R0205: R{5,2} <= 1
 R0206: R{5,3} <= 1
 R0207: R{5,4} <= 1
 R0208: R{5,5} <= 1
 R0209: R{5,6} <= 1
 R0210: R{5,7} <= 1
 R0211: R{5,8} <= 1
 R0212: R{5,9} <= 1
 R0213: R{5,10} <= 1
 R0214: R{5,11} <= 1
 R0215: R{5,12} <= 1
 R0216: R{5,13} <= 1
 R0217: R{5,14} <= 1
 R0218: R{5,15} <= 1
 R0219: R{5,16} <= 1
 R0220: R{5,17} <= 1
 R0221: R{5,18} <= 1
 R0222: R{5,19} <= 1
 R0223: R{5,20} <= 1
 R0224: R{5,21} <= 1
 R0225: R{5,22} <= 1
 R0226: R{5,23} <= 1
 R0227: R{5,24} <= 1
 R0228: R{5,25} <= 1
 R0229: R{6,0} <= 1
 R0230: R{6,1} <= 1
 R0231: R{6,2} <= 1
 R0232: R{6,3} <= 1
 R0233: R{6,4} <= 1
 R0234: R{6,5} <= 1
 R0235: R{6,6} <= 1
 R0236: R{6,7} <= 1
 R0237: R{6,8} <= 1
 R0238: R{6,9} <= 1
 R0239: R{6,10} <= 1
 R0240: R{6,11} <= 1
 R0241: R{6,12} <= 1
 R0242: R{6,13} <= 1
 R0243: R{6,14} <= 1
 R0244: R{6,15} <= 1
 R0245: R{6,16} <= 1
 R0246: R{6,17} <= 1
 R0247: R{6,18} <= 1
 R0248: R{6,19} <= 1
 R0249: R{6,20} <= 1
 R0250: R{6,21} <= 1
 R0251: R{6,22} <= 1
 R0252: R{6,23} <= 1
 R0253: R{6,24} <= 1
 R0254: R{6,25} <= 1
 R0255: R{6,26} <= 1
 R0256: R{6,27} <= 1
 R0257: R{6,28} <= 1
 R0258: R{6,29} <= 1
 R0259: R{6,30} <= 1
 R0260: R{6,31} <= 1
 R0261: R{6,32} <= 1
 R0262: R{6,33} <= 1
 R0263: R{6,34} <= 1
 R0264: R{6,35} <= 1
 R0265: R{6,36} <= 1
 R0266: R{6,37} <= 1
 R0267: R{6,38} <= 1
 R0268: R{6,39} <= 1
 R0269: R{6,40} <= 1
 R0270: R{6,41} <= 1
 R0271: R{6,42} <= 1
 R0272: R{6,43} <= 1
 R0273: R{6,44} <= 1
 R0274: R{6,45} <= 1
 R0275: R{6,46} <= 1
 R0276: R{6,47} <= 1
 R0277: R{6,48} <= 1
 R0278: R{6,49} <= 1
 R0279: R{6,50} <= 1
 R0280: R{6,51} <= 1
 R0281: R{6,52} <= 1
 R0282: R{6,53} <= 1
 R0283: R{6,54} <= 1
 R0284: R{6,55} <= 1
 R0285: R{6,56} <= 1
 R0286: R{6,57} <= 1
 R0287: R{6,58} <= 1
 R1_0: R{0,0} + R{0,1} + R{0,2} + R{0,3} + R{0,4} + R{0,5} + R{0,6}
   + R{0,7} + R{0,8} + R{0,9} + R{0,10} + R{0,11} + R{0,12} + R{0,13}
   + R{0,14} + R{0,15} + R{0,16} + R{0,17} + R{0,18} + R{0,19} + R{0,20}
   + R{0,21} + R{0,22} + R{0,23} + R{0,24} + R{0,25} + R{0,26} + R{0,27}
   + R{0,28} + R{0,29} + R{0,30} + R{0,31} + R{0,32} + R{0,33} <= 1
 R1_1: R{1,0} + R{1,1} + R{1,2} + R{1,3} + R{1,4} + R{1,5} + R{1,6}
   + R{1,7} + R{1,8} + R{1,9} + R{1,10} + R{1,11} + R{1,12} + R{1,13}
   + R{1,14} + R{1,15} + R{1,16} + R{1,17} + R{1,18} + R{1,19} + R{1,20}
   + R{1,21} + R{1,22} + R{1,23} + R{1,24} + R{1,25} + R{1,26} + R{1,27}
   + R{1,28} + R{1,29} + R{1,30} + R{1,31} + R{1,32} + R{1,33} <= 1
 R1_2: R{2,0} + R{2,1} + R{2,2} + R{2,3} + R{2,4} + R{2,5} + R{2,6}
   + R{2,7} + R{2,8} + R{2,9} + R{2,10} + R{2,11} + R{2,12} + R{2,13}
   + R{2,14} + R{2,15} + R{2,16} + R{2,17} + R{2,18} + R{2,19} + R{2,20}
   + R{2,21} + R{2,22} + R{2,23} + R{2,24} + R{2,25} + R{2,26} + R{2,27}
   + R{2,28} + R{2,29} + R{2,30} + R{2,31} + R{2,32} <= 1
 R1_3: R{3,0} + R{3,1} + R{3,2} + R{3,3} + R{3,4} + R{3,5} + R{3,6}
   + R{3,7} + R{3,8} + R{3,9} + R{3,10} + R{3,11} + R{3,12} + R{3,13}
   + R{3,14} + R{3,15} + R{3,16} + R{3,17} + R{3,18} + R{3,19} + R{3,20}
   + R{3,21} + R{3,22} + R{3,23} + R{3,24} + R{3,25} + R{3,26} + R{3,27}
   + R{3,28} + R{3,29} + R{3,30} + R{3,31} + R{3,32} + R{3,33} + R{3,34}
   + R{3,35} + R{3,36} + R{3,37} + R{3,38} + R{3,39} + R{3,40} + R{3,41}
   + R{3,42} + R{3,43} + R{3,44} <= 1
 R1_4: R{4,0} + R{4,1} + R{4,2} + R{4,3} + R{4,4} + R{4,5} + R{4,6}
   + R{4,7} + R{4,8} + R{4,9} + R{4,10} + R{4,11} + R{4,12} + R{4,13}
   + R{4,14} + R{4,15} + R{4,16} + R{4,17} + R{4,18} + R{4,19} + R{4,20}
   + R{4,21} + R{4,22} + R{4,23} + R{4,24} + R{4,25} + R{4,26} + R{4,27}
   + R{4,28} + R{4,29} + R{4,30} + R{4,31} + R{4,32} + R{4,33} + R{4,34}
   + R{4,35} + R{4,36} + R{4,37} + R{4,38} + R{4,39} + R{4,40} + R{4,41}
   + R{4,42} + R{4,43} + R{4,44} + R{4,45} + R{4,46} + R{4,47} + R{4,48}
   + R{4,49} + R{4,50} + R{4,51} + R{4,52} + R{4,53} + R{4,54} + R{4,55}
   + R{4,56} <= 1
 R1_5: R{5,0} + R{5,1} + R{5,2} + R{5,3} + R{5,4} + R{5,5} + R{5,6}
   + R{5,7} + R{5,8} + R{5,9} + R{5,10} + R{5,11} + R{5,12} + R{5,13}
   + R{5,14} + R{5,15} + R{5,16} + R{5,17} + R{5,18} + R{5,19} + R{5,20}
   + R{5,21} + R{5,22} + R{5,23} + R{5,24} + R{5,25} <= 1
 R1_6: R{6,0} + R{6,1} + R{6,2} + R{6,3} + R{6,4} + R{6,5} + R{6,6}
   + R{6,7} + R{6,8} + R{6,9} + R{6,10} + R{6,11} + R{6,12} + R{6,13}
   + R{6,14} + R{6,15} + R{6,16} + R{6,17} + R{6,18} + R{6,19} + R{6,20}
   + R{6,21} + R{6,22} + R{6,23} + R{6,24} + R{6,25} + R{6,26} + R{6,27}
   + R{6,28} + R{6,29} + R{6,30} + R{6,31} + R{6,32} + R{6,33} + R{6,34}
   + R{6,35} + R{6,36} + R{6,37} + R{6,38} + R{6,39} + R{6,40} + R{6,41}
   + R{6,42} + R{6,43} + R{6,44} + R{6,45} + R{6,46} + R{6,47} + R{6,48}
   + R{6,49} + R{6,50} + R{6,51} + R{6,52} + R{6,53} + R{6,54} + R{6,55}
   + R{6,56} + R{6,57} + R{6,58} <= 1
 R2_0: 7 R{0,14} + 7 R{0,16} + 7 R{2,21} + 7 R{2,28} + 7 R{3,19}
   + 7 R{3,24} + 7 R{3,36} + 7 R{4,31} + 7 R{4,55} + 7 R{6,26} + 7 R{6,30}
   + 7 R{6,44} + 7 R{6,53} <= 7
 R2_1: 10 R{0,20} + 10 R{0,28} + 10 R{1,1} + 10 R{1,2} + 10 R{1,3}
   + 10 R{1,4} + 10 R{1,6} + 10 R{1,7} + 10 R{1,8} + 10 R{1,9} + 10 R{1,10}
   + 10 R{1,20} + 10 R{1,22} + 10 R{1,23} + 10 R{1,26} + 10 R{1,27}
   + 10 R{2,10} + 10 R{2,25} + 10 R{3,14} + 10 R{3,18} + 10 R{3,21}
   + 10 R{3,28} + 10 R{3,33} + 10 R{4,11} + 10 R{4,41} + 10 R{4,45}
   + 10 R{6,14} + 10 R{6,24} + 10 R{6,27} + 10 R{6,28} + 10 R{6,41}
   + 10 R{6,45} <= 10
 R2_2: <= 0
 R2_3: 4 R{1,11} + 4 R{1,27} + 4 R{3,1} + 4 R{3,2} + 4 R{3,3} + 4 R{3,4}
   + 4 R{3,5} + 4 R{3,9} + 4 R{3,15} + 4 R{3,21} + 4 R{3,22} + 4 R{4,41}
   + 4 R{4,45} + 4 R{4,49} + 4 R{4,55} + 4 R{5,22} <= 4
 R2_4: <= 0
 R2_5: 5 R{0,4} + 5 R{0,5} + 5 R{0,6} <= 5
 R2_6: 10 R{4,11} <= 10
 R2_7: 6 R{1,1} + 6 R{1,10} <= 6
 R2_8: 9 R{4,45} <= 9
 R2_9: 12 R{0,21} + 12 R{0,23} + 12 R{0,24} + 12 R{0,26} + 12 R{0,32}
   + 12 R{2,22} + 12 R{2,23} + 12 R{2,32} + 12 R{3,19} + 12 R{3,20}
   + 12 R{3,26} + 12 R{3,29} + 12 R{4,1} + 12 R{4,2} + 12 R{4,3}
   + 12 R{4,4} + 12 R{4,5} + 12 R{4,6} + 12 R{4,7} + 12 R{4,8} + 12 R{4,9}
   + 12 R{4,10} + 12 R{4,11} + 12 R{4,13} + 12 R{4,14} + 12 R{4,15}
   + 12 R{4,16} + 12 R{4,17} + 12 R{4,18} + 12 R{4,19} + 12 R{4,20}
   + 12 R{4,21} + 12 R{4,22} + 12 R{4,23} + 12 R{4,24} + 12 R{4,26}
   + 12 R{4,27} + 12 R{4,30} + 12 R{4,32} + 12 R{4,34} + 12 R{4,36}
   + 12 R{4,37} + 12 R{4,38} + 12 R{4,39} + 12 R{4,40} + 12 R{4,41}
   + 12 R{4,42} + 12 R{4,44} + 12 R{4,45} + 12 R{4,46} + 12 R{4,47}
   + 12 R{4,48} + 12 R{4,49} + 12 R{4,50} + 12 R{4,51} + 12 R{4,52}
   + 12 R{4,53} + 12 R{4,54} + 12 R{4,55} + 12 R{4,56} <= 12
 R2_10: 8 R{0,7} + 8 R{0,9} + 8 R{0,13} + 8 R{2,8} + 8 R{3,16} + 8 R{6,1}
   + 8 R{6,2} + 8 R{6,7} + 8 R{6,8} + 8 R{6,13} + 8 R{6,17} + 8 R{6,18}
   + 8 R{6,19} + 8 R{6,21} + 8 R{6,23} + 8 R{6,28} + 8 R{6,29} + 8 R{6,32}
   + 8 R{6,44} + 8 R{6,50} + 8 R{6,55} <= 8
 R2_11: 15 R{0,18} + 15 R{1,16} + 15 R{1,17} + 15 R{1,21} + 15 R{1,24}
   + 15 R{1,28} + 15 R{2,17} + 15 R{3,16} + 15 R{3,19} + 15 R{3,20}
   + 15 R{3,29} + 15 R{3,32} + 15 R{3,36} + 15 R{6,19} <= 15
 R2_12: <= 0
 R2_13: <= 0
 R2_14: <= 0
 R2_15: 11 R{0,0} + 11 R{0,1} + 11 R{0,2} + 11 R{4,1} + 11 R{4,2}
   + 11 R{4,3} + 11 R{4,5} + 11 R{4,9} + 11 R{4,18} + 11 R{4,19}
   + 11 R{4,20} + 11 R{4,27} + 11 R{4,37} + 11 R{4,38} + 11 R{4,39}
   + 11 R{4,55} <= 11
 R2_16: 5 R{0,9} + 5 R{0,12} + 5 R{0,15} + 5 R{0,18} + 5 R{1,12}
   + 5 R{1,16} + 5 R{1,17} + 5 R{1,21} + 5 R{1,24} + 5 R{1,28} + 5 R{1,30}
   + 5 R{2,23} + 5 R{4,20} + 5 R{5,7} + 5 R{6,19} <= 5
 R2_17: <= 11
 R2_18: 5 R{2,23} + 5 R{3,35} + 5 R{4,43} + 5 R{6,30} + 5 R{6,45}
   + 5 R{6,52} <= 5
 R2_19: 11 R{0,22} + 11 R{1,7} + 11 R{1,11} + 11 R{1,27} + 11 R{4,1}
   + 11 R{4,2} + 11 R{4,3} + 11 R{4,5} + 11 R{4,7} + 11 R{4,8} + 11 R{4,10}
   + 11 R{4,12} + 11 R{4,13} + 11 R{4,14} + 11 R{4,15} + 11 R{4,17}
   + 11 R{4,21} + 11 R{4,26} + 11 R{4,27} + 11 R{4,30} + 11 R{4,32}
   + 11 R{4,33} + 11 R{4,34} + 11 R{4,35} + 11 R{4,36} + 11 R{4,37}
   + 11 R{4,38} + 11 R{4,39} + 11 R{4,43} + 11 R{4,44} + 11 R{4,46}
   + 11 R{4,48} + 11 R{4,55} + 11 R{5,11} + 11 R{5,22} + 11 R{6,4}
   + 11 R{6,12} + 11 R{6,16} + 11 R{6,25} + 11 R{6,27} <= 11
 R2_20: 13 R{1,5} + 13 R{1,31} + 13 R{2,5} + 13 R{2,6} + 13 R{4,41}
   + 13 R{4,45} + 13 R{4,49} + 13 R{5,4} + 13 R{5,6} + 13 R{5,9}
   + 13 R{5,17} + 13 R{5,18} + 13 R{5,20} + 13 R{5,24} + 13 R{5,25}
   + 13 R{6,8} + 13 R{6,13} <= 13
 R2_21: <= 0
 R2_22: 10 R{0,18} + 10 R{2,27} + 10 R{4,11} + 10 R{4,25} + 10 R{4,26}
   + 10 R{4,29} + 10 R{4,33} + 10 R{4,39} + 10 R{4,41} + 10 R{4,45}
   + 10 R{6,50} <= 10
 R2_23: 14 R{0,1} + 14 R{0,2} + 14 R{0,7} + 14 R{0,9} + 14 R{0,11}
   + 14 R{0,15} + 14 R{0,19} + 14 R{1,12} + 14 R{1,30} + 14 R{2,0}
   + 14 R{2,1} + 14 R{2,8} + 14 R{2,9} + 14 R{2,13} + 14 R{2,23}
   + 14 R{2,29} + 14 R{4,8} + 14 R{4,10} + 14 R{4,15} + 14 R{4,17}
   + 14 R{4,21} + 14 R{4,26} + 14 R{4,52} + 14 R{5,7} + 14 R{6,3}
   + 14 R{6,6} + 14 R{6,8} + 14 R{6,16} + 14 R{6,18} + 14 R{6,23}
   + 14 R{6,24} + 14 R{6,40} + 14 R{6,44} + 14 R{6,46} + 14 R{6,48}
   + 14 R{6,49} + 14 R{6,55} <= 14
 R2_24: 10 R{1,6} + 10 R{1,8} + 10 R{1,23} + 10 R{1,33} + 10 R{2,21}
   + 10 R{2,26} + 10 R{3,1} + 10 R{3,2} + 10 R{3,3} + 10 R{3,4} + 10 R{3,5}
   + 10 R{3,6} + 10 R{3,7} + 10 R{3,8} + 10 R{3,9} + 10 R{3,11}
   + 10 R{3,13} + 10 R{3,14} + 10 R{3,15} + 10 R{3,17} + 10 R{3,18}
   + 10 R{3,21} + 10 R{3,22} + 10 R{3,23} + 10 R{3,24} + 10 R{3,25}
   + 10 R{3,27} + 10 R{3,28} + 10 R{3,30} + 10 R{3,31} + 10 R{3,33}
   + 10 R{3,36} + 10 R{3,37} + 10 R{3,38} + 10 R{3,41} + 10 R{3,42}
   + 10 R{3,43} + 10 R{3,44} + 10 R{4,50} + 10 R{6,14} <= 10
 R2_25: 13 R{0,18} + 13 R{2,18} + 13 R{2,19} + 13 R{4,1} + 13 R{4,2}
   + 13 R{4,3} + 13 R{4,4} + 13 R{4,5} + 13 R{4,6} + 13 R{4,7} + 13 R{4,8}
   + 13 R{4,9} + 13 R{4,10} + 13 R{4,12} + 13 R{4,13} + 13 R{4,14}
   + 13 R{4,15} + 13 R{4,16} + 13 R{4,17} + 13 R{4,18} + 13 R{4,19}
   + 13 R{4,20} + 13 R{4,21} + 13 R{4,22} + 13 R{4,23} + 13 R{4,24}
   + 13 R{4,27} + 13 R{4,28} + 13 R{4,30} + 13 R{4,32} + 13 R{4,34}
   + 13 R{4,35} + 13 R{4,37} + 13 R{4,38} + 13 R{4,40} + 13 R{4,42}
   + 13 R{4,43} + 13 R{4,44} + 13 R{4,46} + 13 R{4,47} + 13 R{4,48}
   + 13 R{4,50} + 13 R{4,52} + 13 R{4,53} + 13 R{4,54} + 13 R{4,56}
   + 13 R{5,17} + 13 R{5,18} + 13 R{5,24} + 13 R{5,25} + 13 R{6,11}
   + 13 R{6,15} + 13 R{6,19} + 13 R{6,20} + 13 R{6,30} + 13 R{6,31}
   + 13 R{6,32} + 13 R{6,34} + 13 R{6,37} + 13 R{6,39} <= 13
 R2_26: 6 R{0,28} + 6 R{0,30} + 6 R{1,1} + 6 R{1,2} + 6 R{1,3} + 6 R{1,6}
   + 6 R{1,10} + 6 R{1,13} + 6 R{1,14} + 6 R{1,15} + 6 R{1,18} + 6 R{1,20}
   + 6 R{1,22} + 6 R{1,23} + 6 R{1,29} + 6 R{2,21} + 6 R{2,26} + 6 R{3,24}
   + 6 R{3,31} + 6 R{3,35} + 6 R{4,25} + 6 R{4,29} + 6 R{5,9} + 6 R{5,11}
   + 6 R{5,12} + 6 R{5,13} + 6 R{5,15} <= 6
 R2_27: 5 R{0,5} + 5 R{0,6} + 5 R{0,22} + 5 R{0,25} + 5 R{0,28} + 5 R{0,30}
   + 5 R{1,10} + 5 R{1,27} + 5 R{1,31} + 5 R{1,33} + 5 R{3,12} + 5 R{3,24}
   + 5 R{3,30} + 5 R{3,34} + 5 R{3,36} + 5 R{3,38} + 5 R{3,39} + 5 R{3,40}
   + 5 R{3,42} + 5 R{3,44} + 5 R{4,40} + 5 R{4,44} + 5 R{4,46} + 5 R{4,49}
   + 5 R{4,51} + 5 R{4,53} + 5 R{4,54} + 5 R{4,56} + 5 R{5,6} + 5 R{5,14}
   + 5 R{5,22} + 5 R{5,24} + 5 R{5,25} + 5 R{6,1} + 5 R{6,2} + 5 R{6,3}
   + 5 R{6,5} + 5 R{6,6} + 5 R{6,7} + 5 R{6,8} + 5 R{6,9} + 5 R{6,12}
   + 5 R{6,13} + 5 R{6,14} + 5 R{6,16} + 5 R{6,17} + 5 R{6,18} + 5 R{6,20}
   + 5 R{6,21} + 5 R{6,22} + 5 R{6,23} + 5 R{6,24} + 5 R{6,26} + 5 R{6,27}
   + 5 R{6,28} + 5 R{6,32} + 5 R{6,33} + 5 R{6,34} + 5 R{6,35} + 5 R{6,37}
   + 5 R{6,40} + 5 R{6,42} + 5 R{6,43} + 5 R{6,44} + 5 R{6,46} + 5 R{6,47}
   + 5 R{6,48} + 5 R{6,49} + 5 R{6,51} + 5 R{6,52} + 5 R{6,54} + 5 R{6,56}
   + 5 R{6,58} <= 5
 R2_28: <= 0
 R2_29: <= 0
 R2_30: <= 0
 R2_31: 6 R{3,41} + 6 R{6,11} + 6 R{6,15} + 6 R{6,39} + 6 R{6,57} <= 6
 R2_32: <= 7
 R2_33: 12 R{0,29} + 12 R{1,8} + 12 R{2,10} + 12 R{2,15} + 12 R{2,21}
   + 12 R{2,24} + 12 R{2,26} + 12 R{2,30} + 12 R{3,11} + 12 R{3,16}
   + 12 R{3,17} + 12 R{3,18} + 12 R{3,19} + 12 R{3,20} + 12 R{3,24}
   + 12 R{3,31} + 12 R{3,33} + 12 R{3,35} + 12 R{3,37} + 12 R{3,39}
   + 12 R{4,36} + 12 R{4,51} + 12 R{5,14} + 12 R{5,22} + 12 R{6,38}
   + 12 R{6,46} + 12 R{6,54} + 12 R{6,58} <= 12
 R2_34: 5 R{0,29} + 5 R{1,12} + 5 R{1,16} + 5 R{1,17} + 5 R{1,21}
   + 5 R{1,28} + 5 R{1,29} + 5 R{1,32} + 5 R{2,19} + 5 R{3,13} + 5 R{3,37}
   + 5 R{4,11} + 5 R{4,25} + 5 R{4,29} + 5 R{4,33} + 5 R{4,41} + 5 R{4,45}
   + 5 R{6,4} + 5 R{6,10} + 5 R{6,11} + 5 R{6,15} + 5 R{6,19} + 5 R{6,25}
   + 5 R{6,30} + 5 R{6,41} + 5 R{6,45} + 5 R{6,53} <= 5
 R2_35: 13 R{0,15} + 13 R{0,23} + 13 R{0,26} + 13 R{1,12} + 13 R{1,16}
   + 13 R{1,17} + 13 R{1,30} + 13 R{2,11} + 13 R{2,28} + 13 R{5,14} <= 13
 R2_36: <= 0
 R2_37: 5 R{3,1} + 5 R{3,2} + 5 R{3,3} + 5 R{3,4} + 5 R{3,5} + 5 R{3,7}
   + 5 R{3,8} + 5 R{3,10} + 5 R{3,11} + 5 R{3,13} + 5 R{3,14} + 5 R{3,16}
   + 5 R{3,18} + 5 R{3,22} + 5 R{3,24} + 5 R{3,25} + 5 R{3,27} + 5 R{3,28}
   + 5 R{3,30} + 5 R{3,31} + 5 R{3,33} + 5 R{3,35} + 5 R{3,36} + 5 R{3,37}
   + 5 R{3,38} + 5 R{3,41} + 5 R{3,42} + 5 R{3,43} + 5 R{3,44} + 5 R{5,21}
   + 5 R{6,48} <= 5
 R2_38: <= 0
 R2_39: <= 0
 R2_40: 15 R{1,25} + 15 R{1,26} + 15 R{2,3} + 15 R{2,4} + 15 R{2,5}
   + 15 R{2,6} + 15 R{2,21} + 15 R{2,25} + 15 R{2,26} + 15 R{5,17}
   + 15 R{5,18} + 15 R{5,24} + 15 R{5,25} <= 15
 R2_41: 5 R{2,7} + 5 R{2,8} + 5 R{3,7} + 5 R{3,29} + 5 R{3,32} + 5 R{3,42}
   + 5 R{4,6} + 5 R{4,11} + 5 R{4,23} + 5 R{4,25} + 5 R{4,26} + 5 R{4,29}
   + 5 R{4,41} + 5 R{4,45} + 5 R{4,49} + 5 R{6,4} + 5 R{6,12} + 5 R{6,20}
   + 5 R{6,32} + 5 R{6,34} + 5 R{6,37} + 5 R{6,41} + 5 R{6,45} <= 5
 R2_42: 4 R{2,3} + 4 R{2,4} + 4 R{2,5} + 4 R{2,6} + 4 R{2,10} + 4 R{2,25}
   <= 4
 R2_43: <= 0
 R2_44: <= 0
 R2_45: <= 0
 R2_46: 9 R{0,12} + 9 R{0,14} + 9 R{0,16} + 9 R{0,27} + 9 R{4,13}
   + 9 R{4,16} + 9 R{4,26} + 9 R{4,28} + 9 R{4,31} + 9 R{4,35} + 9 R{4,43}
   + 9 R{4,48} + 9 R{4,53} + 9 R{5,7} <= 9
 R2_47: 7 R{5,1} + 7 R{5,2} + 7 R{5,14} + 7 R{5,22} <= 7
 R2_48: <= 4
 R2_49: <= 0
 R2_50: <= 0
 R2_51: 11 R{0,28} + 11 R{0,30} + 11 R{1,25} + 11 R{1,27} + 11 R{3,24}
   + 11 R{3,31} + 11 R{3,33} + 11 R{3,35} + 11 R{3,43} + 11 R{4,1}
   + 11 R{4,6} + 11 R{4,39} + 11 R{6,36} + 11 R{6,38} <= 11
 R2_52: 10 R{0,14} + 10 R{0,16} + 10 R{0,19} + 10 R{0,23} + 10 R{0,26}
   + 10 R{0,27} + 10 R{4,14} + 10 R{4,22} + 10 R{4,23} + 10 R{4,29}
   + 10 R{4,32} + 10 R{4,33} + 10 R{4,34} + 10 R{4,41} + 10 R{4,42}
   + 10 R{4,47} + 10 R{4,49} <= 10
 R2_53: 13 R{4,1} + 13 R{4,2} + 13 R{4,3} + 13 R{4,4} + 13 R{4,5}
   + 13 R{4,7} + 13 R{4,8} + 13 R{4,9} + 13 R{4,10} + 13 R{4,12}
   + 13 R{4,13} + 13 R{4,14} + 13 R{4,15} + 13 R{4,16} + 13 R{4,17}
   + 13 R{4,19} + 13 R{4,35} + 13 R{4,37} + 13 R{4,38} + 13 R{4,39}
   + 13 R{4,43} + 13 R{4,44} + 13 R{4,46} + 13 R{4,50} + 13 R{4,54}
   + 13 R{4,55} <= 13
 R2_54: 9 R{0,28} + 9 R{0,30} + 9 R{3,1} + 9 R{3,2} + 9 R{3,3} + 9 R{3,4}
   + 9 R{3,5} + 9 R{3,6} + 9 R{3,7} + 9 R{3,8} + 9 R{3,9} + 9 R{3,11}
   + 9 R{3,13} + 9 R{3,14} + 9 R{3,15} + 9 R{3,16} + 9 R{3,18} + 9 R{3,20}
   + 9 R{3,21} + 9 R{3,22} + 9 R{3,25} + 9 R{3,27} + 9 R{3,28} + 9 R{3,29}
   + 9 R{3,30} + 9 R{3,31} + 9 R{3,33} + 9 R{3,34} + 9 R{3,35} + 9 R{3,36}
   + 9 R{3,37} + 9 R{3,39} + 9 R{3,43} + 9 R{4,32} + 9 R{4,42} <= 9
 R2_55: 8 R{0,15} + 8 R{0,19} + 8 R{1,25} + 8 R{2,23} + 8 R{3,22}
   + 8 R{3,25} + 8 R{3,26} + 8 R{6,1} + 8 R{6,2} + 8 R{6,3} + 8 R{6,5}
   + 8 R{6,6} + 8 R{6,7} + 8 R{6,8} + 8 R{6,9} + 8 R{6,13} + 8 R{6,14}
   + 8 R{6,17} + 8 R{6,18} + 8 R{6,21} + 8 R{6,22} + 8 R{6,23} + 8 R{6,24}
   + 8 R{6,26} + 8 R{6,28} + 8 R{6,29} + 8 R{6,31} + 8 R{6,33} + 8 R{6,35}
   + 8 R{6,36} + 8 R{6,40} + 8 R{6,43} + 8 R{6,44} + 8 R{6,45} + 8 R{6,47}
   + 8 R{6,52} + 8 R{6,55} <= 8
 R2_56: 6 R{0,7} + 6 R{0,8} + 6 R{0,10} + 6 R{0,11} + 6 R{0,12} + 6 R{0,13}
   + 6 R{0,14} + 6 R{0,15} + 6 R{0,18} + 6 R{0,19} + 6 R{0,21} + 6 R{0,26}
   + 6 R{0,32} + 6 R{1,21} + 6 R{2,0} + 6 R{2,1} + 6 R{2,7} + 6 R{2,10}
   + 6 R{2,11} + 6 R{2,12} + 6 R{2,13} + 6 R{2,14} + 6 R{2,16} + 6 R{2,18}
   + 6 R{2,20} + 6 R{2,22} + 6 R{2,23} + 6 R{2,24} + 6 R{2,27} + 6 R{2,29}
   + 6 R{2,30} + 6 R{2,31} + 6 R{2,32} + 6 R{3,11} + 6 R{3,14} + 6 R{3,18}
   + 6 R{3,20} + 6 R{3,25} + 6 R{3,26} + 6 R{3,29} + 6 R{3,32} + 6 R{3,34}
   + 6 R{3,36} + 6 R{3,39} + 6 R{4,3} + 6 R{4,8} + 6 R{4,11} + 6 R{4,18}
   + 6 R{4,20} + 6 R{4,22} + 6 R{4,24} + 6 R{4,25} + 6 R{4,27} + 6 R{4,28}
   + 6 R{4,30} + 6 R{4,32} + 6 R{4,34} + 6 R{4,36} + 6 R{4,39} + 6 R{4,40}
   + 6 R{4,42} + 6 R{4,48} + 6 R{4,51} + 6 R{4,52} + 6 R{4,53} + 6 R{4,56}
   + 6 R{5,17} + 6 R{5,22} + 6 R{5,24} + 6 R{5,25} + 6 R{6,4} + 6 R{6,5}
   + 6 R{6,12} + 6 R{6,14} + 6 R{6,18} + 6 R{6,20} + 6 R{6,22} + 6 R{6,24}
   + 6 R{6,25} + 6 R{6,31} + 6 R{6,33} + 6 R{6,34} + 6 R{6,36} + 6 R{6,38}
   + 6 R{6,42} + 6 R{6,43} + 6 R{6,47} + 6 R{6,49} + 6 R{6,52} + 6 R{6,54}
   + 6 R{6,58} <= 6
 R2_57: <= 0
 R2_58: 15 R{0,18} + 15 R{0,27} + 15 R{1,30} + 15 R{2,29} + 15 R{2,31}
   <= 15
 R2_59: 10 R{0,15} + 10 R{0,19} + 10 R{0,23} + 10 R{0,26} + 10 R{1,8}
   + 10 R{1,12} + 10 R{1,17} + 10 R{1,30} + 10 R{2,9} + 10 R{2,11}
   + 10 R{2,12} + 10 R{2,28} + 10 R{3,16} + 10 R{4,21} + 10 R{5,14}
   + 10 R{6,9} + 10 R{6,11} + 10 R{6,14} + 10 R{6,17} + 10 R{6,19}
   + 10 R{6,25} + 10 R{6,39} + 10 R{6,50} <= 10
 R2_60: <= 0
 R2_61: 9 R{0,11} + 9 R{0,12} + 9 R{0,15} + 9 R{0,16} + 9 R{0,19}
   + 9 R{0,23} + 9 R{0,24} + 9 R{1,12} + 9 R{1,16} + 9 R{1,17} + 9 R{1,21}
   + 9 R{1,24} + 9 R{1,28} + 9 R{2,18} + 9 R{2,27} + 9 R{3,32} + 9 R{4,12}
   + 9 R{4,25} + 9 R{4,28} + 9 R{4,29} + 9 R{4,31} + 9 R{4,33} + 9 R{4,35}
   + 9 R{4,39} + 9 R{4,43} + 9 R{5,7} + 9 R{5,17} + 9 R{6,15} + 9 R{6,35}
   + 9 R{6,37} + 9 R{6,43} <= 9
 R2_62: <= 0
 R2_63: <= 0
 R2_64: <= 0
 R2_65: 5 R{0,18} + 5 R{0,23} + 5 R{1,24} + 5 R{1,28} + 5 R{2,0} + 5 R{2,1}
   + 5 R{2,7} + 5 R{2,8} + 5 R{2,9} + 5 R{2,10} + 5 R{2,11} + 5 R{2,16}
   + 5 R{2,18} + 5 R{3,20} + 5 R{4,11} + 5 R{4,25} + 5 R{4,27} + 5 R{4,28}
   + 5 R{4,33} + 5 R{4,41} + 5 R{4,47} + 5 R{4,49} + 5 R{5,17} + 5 R{5,24}
   + 5 R{5,25} + 5 R{6,1} + 5 R{6,2} + 5 R{6,3} + 5 R{6,6} + 5 R{6,7}
   + 5 R{6,8} + 5 R{6,13} + 5 R{6,16} + 5 R{6,18} + 5 R{6,20} + 5 R{6,21}
   + 5 R{6,23} + 5 R{6,24} + 5 R{6,27} + 5 R{6,28} + 5 R{6,29} + 5 R{6,31}
   + 5 R{6,33} + 5 R{6,35} + 5 R{6,40} + 5 R{6,46} + 5 R{6,47} + 5 R{6,48}
   + 5 R{6,51} + 5 R{6,55} <= 5
 R2_66: 7 R{1,8} + 7 R{1,22} + 7 R{1,29} + 7 R{1,32} + 7 R{5,22} + 7 R{6,1}
   + 7 R{6,2} + 7 R{6,3} + 7 R{6,4} + 7 R{6,5} + 7 R{6,8} + 7 R{6,10}
   + 7 R{6,12} + 7 R{6,13} + 7 R{6,17} + 7 R{6,18} + 7 R{6,20} + 7 R{6,22}
   + 7 R{6,24} + 7 R{6,25} + 7 R{6,26} + 7 R{6,28} + 7 R{6,32} + 7 R{6,35}
   + 7 R{6,36} + 7 R{6,37} + 7 R{6,40} + 7 R{6,41} + 7 R{6,43} + 7 R{6,44}
   + 7 R{6,45} + 7 R{6,46} + 7 R{6,49} + 7 R{6,50} + 7 R{6,53} + 7 R{6,55}
   <= 7
 R2_67: 3 R{0,1} + 3 R{0,2} + 3 R{0,7} + 3 R{0,8} + 3 R{0,9} + 3 R{0,10}
   + 3 R{0,13} + 3 R{0,26} + 3 R{2,0} + 3 R{2,1} + 3 R{2,7} + 3 R{2,8}
   + 3 R{2,9} + 3 R{2,13} + 3 R{2,16} + 3 R{2,17} + 3 R{2,24} + 3 R{3,36}
   + 3 R{4,11} + 3 R{4,25} + 3 R{4,29} + 3 R{4,33} + 3 R{6,13} + 3 R{6,30}
   <= 3
 R2_68: 6 R{1,1} + 6 R{1,2} + 6 R{1,3} + 6 R{1,4} + 6 R{1,6} + 6 R{1,14}
   + 6 R{1,15} + 6 R{1,20} + 6 R{1,25} + 6 R{3,19} + 6 R{4,25} + 6 R{4,29}
   + 6 R{4,33} + 6 R{5,22} <= 6
 R2_69: 7 R{0,25} + 7 R{1,24} + 7 R{1,26} + 7 R{2,18} + 7 R{3,10}
   + 7 R{3,22} + 7 R{4,1} + 7 R{4,2} + 7 R{4,3} + 7 R{4,4} + 7 R{4,5}
   + 7 R{4,6} + 7 R{4,7} + 7 R{4,8} + 7 R{4,9} + 7 R{4,10} + 7 R{4,11}
   + 7 R{4,12} + 7 R{4,13} + 7 R{4,14} + 7 R{4,15} + 7 R{4,16} + 7 R{4,17}
   + 7 R{4,18} + 7 R{4,19} + 7 R{4,20} + 7 R{4,21} + 7 R{4,22} + 7 R{4,23}
   + 7 R{4,24} + 7 R{4,25} + 7 R{4,26} + 7 R{4,27} + 7 R{4,29} + 7 R{4,30}
   + 7 R{4,33} + 7 R{4,34} + 7 R{4,35} + 7 R{4,36} + 7 R{4,37} + 7 R{4,38}
   + 7 R{4,39} + 7 R{4,42} + 7 R{4,48} + 7 R{4,52} + 7 R{4,55} + 7 R{5,18}
   + 7 R{6,30} <= 7
 R2_70: 11 R{1,1} + 11 R{1,2} <= 11
 R2_71: 7 R{1,22} + 7 R{1,23} + 7 R{1,29} + 7 R{1,32} + 7 R{3,12}
   + 7 R{3,23} + 7 R{4,41} + 7 R{4,45} + 7 R{4,49} + 7 R{5,17} + 7 R{5,18}
   + 7 R{6,1} + 7 R{6,2} + 7 R{6,3} + 7 R{6,4} + 7 R{6,5} + 7 R{6,7}
   + 7 R{6,8} + 7 R{6,10} + 7 R{6,11} + 7 R{6,13} + 7 R{6,15} + 7 R{6,17}
   + 7 R{6,18} + 7 R{6,21} + 7 R{6,22} + 7 R{6,23} + 7 R{6,24} + 7 R{6,25}
   + 7 R{6,26} + 7 R{6,28} + 7 R{6,29} + 7 R{6,33} + 7 R{6,35} + 7 R{6,39}
   + 7 R{6,41} + 7 R{6,50} + 7 R{6,53} + 7 R{6,55} + 7 R{6,57} <= 7
 R2_72: <= 0
 R2_73: 11 R{0,14} + 11 R{0,27} + 11 R{3,36} <= 11
 R2_74: 5 R{5,1} + 5 R{5,21} <= 5
 R2_75: 8 R{0,26} + 8 R{1,24} + 8 R{1,28} + 8 R{3,36} + 8 R{4,31}
   + 8 R{6,1} + 8 R{6,2} + 8 R{6,3} + 8 R{6,5} + 8 R{6,6} + 8 R{6,7}
   + 8 R{6,8} + 8 R{6,9} + 8 R{6,13} + 8 R{6,14} + 8 R{6,16} + 8 R{6,17}
   + 8 R{6,21} + 8 R{6,22} + 8 R{6,23} + 8 R{6,26} + 8 R{6,27} + 8 R{6,28}
   + 8 R{6,29} + 8 R{6,35} + 8 R{6,36} + 8 R{6,40} + 8 R{6,42} + 8 R{6,43}
   + 8 R{6,44} + 8 R{6,47} + 8 R{6,48} + 8 R{6,49} + 8 R{6,50} + 8 R{6,51}
   + 8 R{6,52} + 8 R{6,55} <= 8
 R2_76: 12 R{0,4} + 12 R{0,5} + 12 R{0,6} + 12 R{0,20} + 12 R{0,22}
   + 12 R{0,25} + 12 R{0,31} + 12 R{1,4} + 12 R{1,5} + 12 R{1,7}
   + 12 R{1,11} + 12 R{1,19} + 12 R{1,26} + 12 R{1,27} + 12 R{1,31}
   + 12 R{3,8} + 12 R{3,11} + 12 R{3,16} + 12 R{3,25} + 12 R{3,27}
   + 12 R{3,38} + 12 R{3,41} + 12 R{3,44} + 12 R{4,25} + 12 R{5,6}
   + 12 R{5,9} + 12 R{5,17} + 12 R{5,18} + 12 R{5,20} + 12 R{5,25}
   + 12 R{6,4} + 12 R{6,6} + 12 R{6,9} + 12 R{6,11} + 12 R{6,12}
   + 12 R{6,16} + 12 R{6,20} + 12 R{6,25} + 12 R{6,34} + 12 R{6,39}
   + 12 R{6,42} + 12 R{6,48} + 12 R{6,51} + 12 R{6,54} + 12 R{6,57}
   + 12 R{6,58} <= 12
 R2_77: 7 R{0,5} + 7 R{0,6} + 7 R{0,17} + 7 R{0,22} + 7 R{1,2} + 7 R{1,3}
   + 7 R{1,4} + 7 R{1,5} + 7 R{1,7} + 7 R{1,8} + 7 R{1,9} + 7 R{1,10}
   + 7 R{1,14} + 7 R{1,15} + 7 R{1,18} + 7 R{1,19} + 7 R{1,22} + 7 R{1,29}
   + 7 R{1,32} + 7 R{2,4} + 7 R{2,5} + 7 R{2,10} + 7 R{2,15} + 7 R{3,2}
   + 7 R{3,6} + 7 R{3,8} + 7 R{3,9} + 7 R{3,11} + 7 R{3,12} + 7 R{3,15}
   + 7 R{3,16} + 7 R{3,17} + 7 R{3,19} + 7 R{3,20} + 7 R{3,23} + 7 R{3,25}
   + 7 R{3,27} + 7 R{3,34} + 7 R{3,38} + 7 R{3,39} + 7 R{3,40} + 7 R{3,44}
   + 7 R{4,2} + 7 R{4,3} + 7 R{4,4} + 7 R{4,5} + 7 R{4,7} + 7 R{4,9}
   + 7 R{4,11} + 7 R{4,13} + 7 R{4,19} + 7 R{4,27} + 7 R{4,30} + 7 R{4,32}
   + 7 R{4,35} + 7 R{4,38} + 7 R{4,44} + 7 R{4,46} + 7 R{4,50} + 7 R{4,54}
   + 7 R{5,2} + 7 R{5,3} + 7 R{5,4} + 7 R{5,5} + 7 R{5,8} + 7 R{5,10}
   + 7 R{5,13} + 7 R{5,14} + 7 R{5,15} + 7 R{5,16} + 7 R{5,17} + 7 R{5,19}
   + 7 R{5,20} + 7 R{5,22} + 7 R{5,24} + 7 R{5,25} + 7 R{6,2} + 7 R{6,3}
   + 7 R{6,4} + 7 R{6,5} + 7 R{6,6} + 7 R{6,7} + 7 R{6,9} + 7 R{6,12}
   + 7 R{6,16} + 7 R{6,17} + 7 R{6,21} + 7 R{6,23} + 7 R{6,26} + 7 R{6,27}
   + 7 R{6,29} + 7 R{6,33} + 7 R{6,34} + 7 R{6,41} + 7 R{6,42} + 7 R{6,44}
   + 7 R{6,47} + 7 R{6,48} + 7 R{6,50} + 7 R{6,51} + 7 R{6,52} + 7 R{6,53}
   + 7 R{6,54} + 7 R{6,58} <= 7
Bounds
End
